NAME : pr8.tsp
COMMENT : 8-city problem
TYPE : TSP 
DIMENSION : 8
EDGE_WEIGHT_TYPE : CEIL_2D
NODE_COORD_SECTION 
1  6.826500e+04 7.534300e+04 
2  3.878600e+04 4.294000e+04 
3  7.651900e+04 8.033800e+04 
4  6.589600e+04 6.096500e+04 
5  8.460800e+04 3.353600e+04 
6  5.970900e+04 8.849700e+04 
7  7.664000e+04 1.520100e+04 
8  8.263800e+04 6.393900e+04 
EOF 
